<number of tasks>
50

<cycle time>
1000

<order strength>
0.198


<task times>
1 384
2 499
3 756
4 638
5 745
6 574
7 452
8 560
9 289
10 617
11 462
12 339
13 458
14 542
15 424
16 564
17 358
18 589
19 574
20 535
21 509
22 550
23 520
24 615
25 652
26 347
27 827
28 514
29 521
30 522
31 632
32 721
33 721
34 705
35 556
36 612
37 426
38 636
39 545
40 495
41 397
42 499
43 578
44 407
45 546
46 416
47 666
48 459
49 291
50 446

<precedence relations>
1,40
2,23
2,30
3,8
3,10
4,7
4,9
5,30
5,39
7,12
7,13
8,14
8,29
9,15
10,11
10,16
11,26
12,19
12,20
13,17
13,31
14,23
14,34
15,22
16,18
16,21
17,24
18,28
19,25
20,29
21,30
22,26
22,31
23,27
25,32
25,36
27,35
27,41
28,34
30,33
33,37
33,38
33,42
34,40
34,41
35,39
38,43
38,45
38,49
39,46
39,48
39,50
40,44
41,49
42,47

<end>
